param set_len = 14;
param target_sum = 3329075681;
param values := [1] 618874721 [2] 257289186 [3] 430685072 [4] 929168354 [5] 249913625 [6] 55376475 [7] 121769939 [8] 388571360 [9] 141686556 [10] 447511709 [11] 985442466 [12] 782643821 [13] 379476001 [14] 243625510 ;
